; benchmark generated from python API
(set-info :status unknown)
(declare-fun L_0 () Real)
(declare-fun S_1 () Real)
(declare-fun A_1 () Real)
(declare-fun L0 () Real)
(declare-fun A_0 () Real)
(declare-fun S_0 () Real)
(declare-fun A_2 () Real)
(declare-fun A_3 () Real)
(declare-fun L_3 () Real)
(declare-fun L_1 () Real)
(declare-fun L_2 () Real)
(declare-fun S_2 () Real)
(declare-fun S_4 () Real)
(declare-fun S_3 () Real)
(declare-fun A_4 () Real)
(assert
 (let (($x3333 (<= (+ (* (- 1.0) A_1) S_1 L_0) 0.0)))
 (let (($x37 (>= L0 0.0)))
 (let (($x2113 (<= (+ S_0 (* (- 1.0) A_0) L_0) 0.0)))
 (let ((?x6613 (* 2.0 A_2)))
 (let ((?x6263 (* (- 2.0) A_3)))
 (let ((?x6642 (* 2.0 L_3)))
 (let ((?x1096 (* (- 1.0) S_0)))
 (let ((?x433 (* (- 2.0) L_0)))
 (let (($x1189 (not (= L_0 L_1))))
 (let (($x74 (= L_3 L_2)))
 (let (($x42416 (or $x74 $x1189 (<= (+ L_3 (* (- 1.0) A_3) ?x1096 (* 2.0 S_1)) (- 5.0)) (<= (+ ?x433 ?x1096 ?x6642 ?x6263 ?x6613 S_1) (- 10.0)))))
 (let (($x19563 (<= (+ (* 3.0 L_3) (* (- 3.0) A_3) ?x1096 (* 4.0 S_2)) (- 15.0))))
 (let (($x3317 (= L_3 L_0)))
 (let (($x1758 (not (= L_0 L_2))))
 (let (($x42400 (or $x1758 $x3317 (<= (+ ?x6642 ?x6263 (* 3.0 S_2) (* (- 1.0) S_1)) (- 10.0)))))
 (let ((?x1544 (* (- 1.0) A_0)))
 (let ((?x5295 (* 3.0 A_2)))
 (let ((?x4927 (* (- 3.0) L_1)))
 (let (($x887 (<= L_1 L_0)))
 (let (($x894 (not $x887)))
 (let (($x42371 (or $x74 $x894 (not (<= (+ ?x4927 L_0 ?x6642 ?x6263 ?x5295 ?x1544) (- 10.0))) (<= (+ A_2 L_3 (* (- 1.0) A_3) ?x1544 S_1) (- 5.0)))))
 (let (($x32426 (<= (+ (* (/ 3.0 2.0) L_3) (* (- (/ 3.0 2.0)) A_3) (* (/ 1.0 2.0) S_1) S_4) (- (/ 15.0 2.0)))))
 (let (($x12004 (<= (+ (* (- 1.0) L_0) ?x6642 ?x6263 A_2 S_4) (- 10.0))))
 (let (($x31602 (<= (+ (* (/ 1.0 2.0) L_3) (* (- (/ 1.0 2.0)) A_3) L_0 ?x1544 (* (/ 3.0 2.0) S_1)) (- (/ 5.0 2.0)))))
 (let (($x29640 (<= (+ (* (/ 4.0 3.0) L_3) (* (/ 1.0 3.0) S_0) (* (- (/ 4.0 3.0)) A_3) S_4) (- (/ 20.0 3.0)))))
 (let ((?x12523 (* (- (/ 3.0 2.0)) A_3)))
 (let ((?x2245 (* (/ 1.0 2.0) A_1)))
 (let ((?x9282 (* (- (/ 1.0 2.0)) L_0)))
 (let ((?x4799 (* (/ 3.0 2.0) L_3)))
 (let (($x20694 (<= (+ (* (- 1.0) L_0) L_3 (* (- 1.0) A_3) A_2) (- 10.0))))
 (let (($x44529 (or $x74 $x20694 (<= (+ (* (/ 1.0 2.0) L_3) (* (- (/ 1.0 2.0)) A_3) (* (/ 1.0 2.0) S_1)) (- (/ 15.0 2.0))))))
 (let (($x66333 (or $x74 (<= (+ (* (/ 1.0 2.0) L_3) ?x9282 ?x2245 (* (- (/ 1.0 2.0)) A_3)) (- (/ 15.0 2.0))) $x20694 (<= (+ (* (/ 1.0 3.0) L_3) (* (/ 1.0 3.0) S_0) (* (- (/ 1.0 3.0)) A_3)) (- (/ 20.0 3.0))))))
 (let (($x42239 (or $x1758 $x3317 (<= (+ ?x6642 ?x6263 L_0 (* 3.0 S_2) ?x1544) (- 10.0)))))
 (let ((?x3179 (* (- (/ 1.0 2.0)) A_3)))
 (let ((?x12417 (* (- (/ 1.0 2.0)) A_1)))
 (let ((?x12595 (* (/ 1.0 2.0) L_3)))
 (let (($x42152 (or $x1758 (<= (+ ?x12595 (* (/ 1.0 2.0) L_0) ?x12417 ?x3179 S_2) (- (/ 5.0 2.0))) $x3317)))
 (let (($x3344 (<= (+ A_1 (* (- 1.0) L_0) (* (- 1.0) S_2)) 0.0)))
 (let ((?x268 (* (- 1.0) S_2)))
 (let ((?x207 (* (- 1.0) L_3)))
 (let ((?x239 (* (- 1.0) A_2)))
 (let (($x64 (= L_2 L_1)))
 (let ((?x624 (* (- 1.0) L_0)))
 (let ((?x6817 (* (- 2.0) A_2)))
 (let ((?x6639 (* 2.0 L_2)))
 (let ((?x7280 (* (- 2.0) L_3)))
 (let ((?x2132 (* 2.0 A_3)))
 (let ((?x519 (* (- 1.0) S_4)))
 (let ((?x1591 (* 3.0 A_3)))
 (let ((?x7651 (* (- 3.0) L_3)))
 (let ((?x6903 (* (- 3.0) A_2)))
 (let ((?x1773 (* 3.0 L_2)))
 (let (($x66879 (or $x64 (<= (+ ?x1773 ?x6903 ?x7651 ?x1591 S_0 ?x519) 0.0) (>= S_4 (+ ?x2132 ?x7280 ?x6639 ?x6817 A_1 ?x624)))))
 (let (($x13091 (<= (+ (* (- 2.0) L_1) ?x6642 (* 2.0 A_1) ?x6263 ?x1096 S_3) 0.0)))
 (let (($x12553 (<= (+ ?x4927 L_3 ?x1096 A_1 (* (- 1.0) A_3) ?x6613 ?x519) 0.0)))
 (let (($x980 (<= L_3 L_2)))
 (let (($x11884 (<= (+ (* (- (/ 3.0 2.0)) L_1) ?x4799 (* (/ 3.0 2.0) A_1) S_2 ?x12523 ?x1096) 0.0)))
 (let (($x13056 (<= (+ (* (- (/ 3.0 2.0)) L_1) ?x4799 (* (/ 3.0 2.0) A_1) ?x268 ?x12523 S_4) 0.0)))
 (let (($x9755 (<= 0.0 (+ ?x239 L_3 (* (- 1.0) A_3) S_4 A_1))))
 (let (($x25171 (<= (+ (* (- 4.0) L_1) ?x268 ?x1096 ?x6263 (* 2.0 A_1) ?x6642 ?x6613) 0.0)))
 (let ((?x12895 (* (- (/ 5.0 2.0)) A_3)))
 (let ((?x12896 (* (/ 5.0 2.0) A_1)))
 (let ((?x12900 (* (/ 5.0 2.0) L_3)))
 (let ((?x12488 (* (- (/ 5.0 2.0)) L_1)))
 (let (($x10932 (<= (+ ?x12488 ?x12900 ?x12896 ?x12895 ?x1096 S_4) 0.0)))
 (let (($x4631 (<= (+ L_3 (* (- 1.0) A_3) ?x1096 (* (- 1.0) L_1) A_1 S_1) 0.0)))
 (let (($x3142 (<= (+ ?x1096 (* 2.0 S_1) ?x519) 0.0)))
 (let (($x2956 (>= S_4 (+ A_3 (* (- 1.0) L_2)))))
 (let (($x66865 (or $x2956 $x3142 (<= (+ (* (- 2.0) L_1) ?x1096 ?x6613 S_1 (* (- 2.0) S_4)) 0.0))))
 (let ((?x309 (* (- 1.0) S_1)))
 (let ((?x267 (* (- 1.0) A_3)))
 (let ((?x12346 (* (- 2.0) L_1)))
 (let (($x10318 (<= (+ ?x12346 A_1 L_3 ?x267 A_2 ?x309) 0.0)))
 (let (($x8709 (<= (+ (* (- (/ 3.0 2.0)) L_1) ?x4799 (* (/ 3.0 2.0) A_1) ?x12523 S_3 ?x309) 0.0)))
 (let (($x44530 (or $x980 (<= (+ (* (- 1.0) L_1) (* (- 1.0) A_1) L_3 ?x267 ?x6613) (- 10.0)) (<= (+ (* (- (/ 1.0 2.0)) L_1) ?x4799 ?x2245 ?x12523 S_4) (- 5.0)))))
 (let ((?x12807 (* (/ 3.0 2.0) A_3)))
 (let ((?x12868 (* (- (/ 3.0 2.0)) A_1)))
 (let ((?x12871 (* (- (/ 3.0 2.0)) L_3)))
 (let ((?x7172 (* (/ 3.0 2.0) L_1)))
 (let (($x10453 (<= (+ (* 2.0 L_1) S_0 (* (- 1.0) A_1) ?x207 A_3 ?x239) 0.0)))
 (let (($x1196 (not (= L_2 L_3))))
 (let (($x9131 (>= (+ (* (- 2.0) L_2) ?x6613 L_3 ?x267 (* (- 1.0) A_1) L_0) 5.0)))
 (let (($x10433 (<= (+ ?x12346 L_0 A_1 L_3 ?x267 A_2 ?x1544) 0.0)))
 (let (($x8389 (<= (+ (* (- (/ 3.0 2.0)) L_1) ?x4799 (* (/ 3.0 2.0) A_1) ?x12523 L_0 S_3 ?x1544) 0.0)))
 (let (($x7430 (<= (+ (* (/ 3.0 2.0) L_2) (* (/ 1.0 2.0) S_0) ?x267 (* (- (/ 1.0 2.0)) A_2) S_4) (- (/ 5.0 2.0)))))
 (let (($x2016 (not (= L_1 L_3))))
 (let (($x54 (= L_1 L_0)))
 (let (($x41797 (or $x64 $x1196 (>= (+ (* (- 1.0) L_2) ?x6613 ?x267 (* (- 1.0) A_1) L_0) 5.0) (<= (+ L_2 ?x6903 ?x2132 S_0) (- 5.0)))))
 (let (($x42923 (or $x980 $x10318 (<= (+ ?x12346 ?x6642 (* 2.0 A_1) ?x6263 ?x309 S_4) 0.0))))
 (let (($x42958 (or $x980 (<= (+ (* (- 1.0) L_1) L_3 A_1 S_2 ?x267 ?x309) 0.0))))
 (let (($x65784 (or $x887 $x980 (<= (+ (* (/ 1.0 2.0) L_1) ?x12595 ?x12417 S_2 ?x3179) (- 5.0)))))
 (let (($x41636 (or $x64 (<= (+ ?x6639 S_0 ?x6817 S_4) (- 10.0)) (<= (+ ?x1773 ?x433 ?x6903 (* 2.0 A_1) S_4) (- 15.0)))))
 (let (($x9192 (<= (+ (* (/ 3.0 2.0) L_2) (* (/ 1.0 2.0) S_0) (* (- (/ 3.0 2.0)) A_2) S_3) (- (/ 15.0 2.0)))))
 (let (($x10322 (not $x9755)))
 (let (($x3297 (= L_3 L_1)))
 (let (($x43065 (or $x3297 $x10322 (<= (+ (* (- 1.0) L_1) ?x6642 ?x6263 A_2 S_4) (- 10.0)))))
 (let (($x25216 (<= (+ ?x4927 (* (- 2.0) S_2) S_4 ?x6263 (* 2.0 A_1) ?x6642 A_2) 0.0)))
 (let ((?x12412 (* (/ 1.0 2.0) A_3)))
 (let ((?x12016 (* (- (/ 1.0 2.0)) L_3)))
 (let ((?x4002 (* (/ 1.0 2.0) L_1)))
 (let (($x5234 (<= (+ (* (/ 1.0 3.0) S_0) (* (- (/ 1.0 3.0)) S_4)) (- 5.0))))
 (let (($x3685 (>= S_4 (+ A_3 (* (- 1.0) L_1)))))
 (let (($x46508 (or $x980 $x9755 (<= (+ ?x12346 ?x6642 (* 2.0 A_1) ?x6263 L_0 ?x1544 S_4) 0.0))))
 (let (($x11465 (<= (+ ?x624 A_2 ?x519) (- 5.0))))
 (let (($x1534 (<= (+ ?x624 A_3 ?x519) 0.0)))
 (let (($x1287 (not (<= L_2 L_0))))
 (let (($x3953 (<= (+ (* (/ 1.0 2.0) S_1) (* (- (/ 1.0 2.0)) S_4)) (- 5.0))))
 (let (($x11562 (<= (+ (* 2.0 L_1) (* 2.0 S_0) (* (- 3.0) A_1) A_3) (- 10.0))))
 (let (($x41180 (or $x54 $x1196 (<= (+ ?x239 A_3 S_0 L_1 (* (- 1.0) A_1)) (- 5.0)) $x11562)))
 (let ((?x1564 (* (- 4.0) A_3)))
 (let ((?x6031 (* 4.0 L_3)))
 (let ((?x6039 (* 4.0 A_2)))
 (let ((?x5537 (* (- 4.0) L_2)))
 (let ((?x1811 (* (- 3.0) A_3)))
 (let ((?x6768 (* 3.0 L_3)))
 (let ((?x8260 (* (- 3.0) L_2)))
 (let (($x43640 (or $x74 (<= (+ (* (- 2.0) L_2) ?x6613 ?x6642 ?x6263 S_2 ?x309) 0.0))))
 (let (($x11612 (<= (+ (* 3.0 L_1) S_3 (* 2.0 S_0) (* (- 3.0) A_1)) (- 15.0))))
 (let (($x48365 (or $x54 $x2956 (<= (+ L_1 (* 2.0 S_2) (* (- 1.0) A_1) ?x519) (- 5.0)))))
 (let (($x18530 (or $x54 (<= (+ L_1 ?x207 (* (- 1.0) A_1) A_3 S_1 ?x519) 0.0))))
 (let (($x7375 (<= (+ L_0 ?x1544 (* (/ 3.0 2.0) S_1) (* (- (/ 1.0 2.0)) S_4)) 0.0)))
 (let (($x45497 (or $x2956 $x7375 (<= (+ (* (- 1.0) L_1) L_0 A_2 ?x1544 S_1 ?x519) 0.0))))
 (let (($x18275 (or $x74 (<= (+ (* (- 1.0) L_1) L_3 A_1 ?x268 ?x267 S_3) 0.0))))
 (let (($x12318 (or $x3344 (<= (+ L_1 (* (- 2.0) S_2) (* 2.0 S_0) ?x239 S_4) 0.0))))
 (let (($x11121 (or $x54 (<= (+ (* 2.0 L_1) S_3 S_0 (* (- 1.0) A_1) ?x239) (- 5.0)))))
 (let (($x886 (not (<= L_2 L_1))))
 (let (($x44069 (or $x980 $x10433 (<= (+ (* (- (/ 1.0 2.0)) L_1) ?x12595 ?x2245 ?x3179 L_0 ?x1544 S_1) 0.0))))
 (let (($x43771 (or $x64 (<= (+ ?x6639 ?x6817 ?x207 A_3 (* (- 1.0) L_1) A_1) 0.0))))
 (let (($x65726 (or $x64 (<= (+ (* (- 1.0) L_1) ?x6639 A_1 ?x239 ?x267 S_4) 0.0))))
 (let (($x2972 (= L_2 L_0)))
 (let ((?x6132 (* (- 5.0) A_2)))
 (let ((?x12052 (* 5.0 A_1)))
 (let ((?x12081 (* 5.0 L_2)))
 (let ((?x13730 (* (- 5.0) L_1)))
 (let (($x45784 (or $x980 (<= (+ (* (- 1.0) L_1) L_3 A_1 S_2 ?x267 L_0 ?x1544) 0.0))))
 (let (($x35734 (or $x54 $x2016 (<= (+ L_1 S_0 (* (- 1.0) A_1) A_3 ?x239) 0.0))))
 (let (($x47326 (or $x54 (<= (+ (* 2.0 L_1) S_0 (* (- 1.0) A_1) ?x267 S_4) (- 5.0)))))
 (let (($x43968 (or $x64 (<= (+ ?x4927 ?x1773 (* 3.0 A_1) ?x6903 ?x268 S_4) 0.0))))
 (let (($x11765 (<= (+ (* 4.0 L_1) (* 3.0 S_0) (* (- 4.0) A_1) S_4) (- 20.0))))
 (let (($x9214 (<= (+ (* (- 3.0) L_0) ?x1773 (* 3.0 A_1) ?x6903 ?x268 S_4) 0.0)))
 (let (($x46469 (or $x1758 $x3317 (<= (+ (* (- 3.0) L_0) ?x5295 ?x6768 ?x1811 ?x268 S_4) 0.0))))
 (let (($x2865 (<= (+ (* (- 2.0) L_2) ?x6613 L_3 ?x267 L_1 (* (- 1.0) A_1)) 0.0)))
 (let (($x2273 (or $x54 (<= (+ (* 2.0 L_1) S_0 (* (- 2.0) A_1) S_2) (- 10.0)))))
 (let (($x46411 (or $x64 (<= (+ ?x12346 ?x6639 (* 2.0 A_1) ?x6817 S_2 ?x309) 0.0))))
 (let (($x67553 (or $x64 (<= (+ ?x4927 ?x1773 (* 3.0 A_1) ?x6903 ?x1096 S_2) 0.0))))
 (let ((?x6601 (* (- 5.0) A_3)))
 (let ((?x7963 (* 5.0 L_3)))
 (let ((?x1865 (* 5.0 A_2)))
 (let ((?x4533 (* (- 5.0) L_2)))
 (let (($x1856 (<= (+ (* (- 1.0) L_2) L_0 A_2 L_3 ?x267 (* (- 1.0) A_1) S_2) 0.0)))
 (let (($x67008 (or $x2956 (<= (+ L_0 (* 2.0 S_2) (* (- 1.0) A_1) ?x519) 0.0))))
 (let (($x46602 (or $x74 (<= (+ (* (- 2.0) L_2) L_0 ?x6613 ?x6642 ?x6263 S_2 ?x1544) 0.0))))
 (let (($x5547 (<= (+ L_1 (* (- 1.0) L_2) (* (- 1.0) A_1) A_2 S_2 ?x519) 0.0)))
 (let (($x45494 (or $x2956 (<= (+ L_0 (* 3.0 S_2) ?x1544 (* (- 2.0) S_4)) 0.0))))
 (let (($x43960 (or $x74 (<= (+ (* (- 2.0) L_2) ?x6613 ?x6642 ?x6263 ?x1096 S_1) 0.0))))
 (let (($x2174 (<= (+ (* (- 1.0) L_2) A_2 S_0 L_1 (* (- 1.0) A_1) ?x268) 0.0)))
 (let ((?x6295 (* (- 2.0) A_1)))
 (let ((?x7401 (* (- 2.0) L_2)))
 (let ((?x12040 (* 2.0 L_1)))
 (let (($x2528 (or $x64 (<= (+ (* (- 1.0) L_1) L_2 A_1 ?x239 L_0 ?x1544 S_1) 0.0))))
 (let (($x7501 (<= (+ (* 3.0 L_1) ?x8260 (* (- 3.0) A_1) ?x5295 S_0 ?x519) 0.0)))
 (let (($x48171 (or $x74 (<= (+ (* (- 1.0) L_2) L_0 A_2 L_3 ?x267 ?x1544 S_1) 0.0))))
 (let ((?x14211 (* (- 4.0) A_2)))
 (let ((?x12768 (* 4.0 A_1)))
 (let ((?x14213 (* 4.0 L_2)))
 (let ((?x3607 (* (- 4.0) L_1)))
 (let (($x43464 (or $x64 (<= (+ ?x12346 ?x6639 (* 2.0 A_1) ?x6817 S_3 ?x268) 0.0))))
 (let (($x42956 (or $x64 (<= (+ ?x12346 ?x6639 (* 2.0 A_1) ?x6817 ?x1096 S_1) 0.0))))
 (let (($x123 (>= A_2 A_1)))
 (let (($x816 (or $x54 $x894)))
 (let (($x4146 (or $x54 (<= (+ (* 3.0 L_1) (* 2.0 S_0) ?x6295 ?x239 S_4) (- 10.0)))))
 (let (($x66835 (or $x64 (<= (+ ?x4927 ?x1773 (* 3.0 A_1) ?x6903 S_3 ?x309) 0.0))))
 (let (($x49282 (or $x64 (<= (+ ?x4927 ?x1773 (* 3.0 A_1) ?x6903 S_3 L_0 ?x1544) 0.0))))
 (let (($x49885 (or $x74 (<= (+ ?x7401 L_0 ?x6613 ?x6642 ?x6263 S_3 (* (- 1.0) A_1)) 0.0))))
 (let (($x67436 (or $x74 (<= (+ ?x8260 L_0 ?x5295 ?x6768 ?x1811 (* (- 1.0) A_1) S_4) 0.0))))
 (let (($x2084 (or $x64 $x886)))
 (let (($x65563 (or $x64 (<= (+ ?x12346 ?x6639 (* 2.0 A_1) ?x6817 S_2 L_0 ?x1544) 0.0))))
 (let (($x3283 (or $x74 (not $x980))))
 (let (($x785 (not (<= (+ A_3 ?x207) S_3))))
 (let ((?x517 (* (- 1.0) L_2)))
 (let ((?x518 (+ A_2 ?x517)))
 (let (($x575 (<= ?x518 S_3)))
 (let (($x125 (>= A_4 A_3)))
 (let (($x122 (>= A_1 A_0)))
 (let (($x114 (>= S_2 S_1)))
 (let (($x111 (>= S_1 S_0)))
 (let (($x36 (>= L_0 L0)))
 (let (($x120 (>= S_4 S_3)))
 (let (($x2596 (<= S_4 (+ A_4 ?x207))))
 (let (($x3260 (<= S_2 (+ A_2 (* (- 1.0) L_1)))))
 (and $x3260 $x2596 $x120 $x36 $x111 $x114 $x122 $x125 $x575 $x785 $x3283 (or $x64 (<= (+ L_2 ?x239 S_2) (- 5.0))) (or $x54 (<= (+ ?x12040 ?x517 ?x6295 A_2 S_0) (- 5.0))) $x65563 $x2084 $x67436 (or $x74 (<= (+ ?x7401 ?x6613 ?x6642 ?x6263 S_3 ?x268) 0.0)) $x49885 (or $x54 (<= (+ L_1 S_0 (* (- 1.0) A_1)) (- 10.0))) (or $x3344 (<= (+ ?x268 S_0) (- 5.0))) (or $x64 (<= (+ ?x3607 ?x14213 ?x12768 ?x14211 S_4 ?x309) 0.0)) (or $x64 (<= (+ ?x3607 ?x14213 ?x12768 ?x14211 L_0 ?x1544 S_4) 0.0)) $x49282 $x66835 $x4146 $x816 (or $x1189 $x2972 (<= (+ ?x624 ?x6639 A_1 ?x239 ?x267 S_4) 0.0)) $x123 (or $x64 $x2956 $x3142) $x42956 $x43464 (or $x64 (<= (+ ?x3607 ?x14213 ?x12768 ?x14211 S_3 ?x1096) 0.0)) $x48171 (or $x54 $x2956 $x7501) $x2528 (or $x64 $x2956 $x7375) (or $x54 (<= (+ ?x12040 ?x7401 ?x6295 ?x6613 ?x519 S_1) 0.0) $x2956) (or $x54 $x2174) $x43960 $x45494 (or $x54 $x2956 $x5547) $x46602 (or $x74 (<= (+ ?x8260 ?x5295 ?x6768 ?x1811 ?x1096 S_2) 0.0)) $x67008 (or $x74 $x1856) (or $x74 (<= (+ ?x8260 L_0 ?x5295 ?x6768 ?x1811 S_3 ?x1544) 0.0)) (or $x74 (<= (+ ?x4533 ?x1865 ?x7963 ?x6601 ?x1096 S_4) 0.0)) $x67553 (or $x54 (<= (+ L_1 (* (- 1.0) A_1) S_1) (- 5.0))) $x46411 (or $x3344 (<= (+ (* (- 4.0) S_2) (* 3.0 S_0) S_4) 0.0)) (or $x3344 (<= (+ (* (- 3.0) S_2) (* 2.0 S_0) S_3) 0.0)) $x2273 (or $x64 (<= (+ ?x7280 ?x6639 ?x6817 ?x2132 ?x519 S_1) 0.0)) (or $x64 (<= (+ L_2 L_0 ?x239 ?x1544 (* 2.0 S_1)) (- 5.0))) (or $x64 (<= (+ ?x6639 ?x1096 ?x6817 (* 3.0 S_1)) (- 10.0))) (or $x3344 (<= (+ L_2 ?x268 S_0 ?x267 S_4) 0.0)) (or $x54 $x74 $x2865) $x46469 (or $x1189 $x2972 $x9214) (or $x54 $x11765) $x43968 $x47326 (or $x64 (<= (+ ?x6639 ?x267 ?x239 S_4 S_1) (- 5.0))) $x35734 $x45784 (or $x64 (<= (+ ?x1773 ?x6903 S_4 (* 2.0 S_1)) (- 15.0))) (or $x74 (<= (+ L_3 ?x267 S_3) (- 5.0))) (or $x64 (<= (+ ?x13730 ?x12081 ?x12052 ?x6132 ?x1096 S_4) 0.0)) (or (<= (+ (* 4.0 S_2) ?x1096 (* (- 3.0) S_4)) 0.0) $x2956) (or $x74 (<= (+ ?x517 A_2 ?x6642 ?x6263 S_4) (- 5.0))) (or $x1189 $x2972 (<= (+ ?x6639 ?x6817 ?x207 A_3 ?x624 A_1) 0.0)) $x65726 (or $x64 (<= (+ ?x12346 ?x1773 (* 2.0 A_1) ?x6903 S_4) (- 5.0))) $x43771 (or $x3297 $x10322 $x10433) $x44069 (or $x886 $x894 $x1534 $x7375 (<= (+ A_2 ?x1544 S_1 ?x519) 0.0)) $x11121 (or $x3344 (<= (+ L_1 ?x268 S_0 ?x239 S_3) 0.0)) $x12318 (or $x74 (<= (+ ?x5537 L_0 ?x6039 ?x6031 ?x1564 ?x1544 S_4) 0.0)) $x18275 (or $x64 (<= (+ (* (- 1.0) L_1) ?x6639 A_1 ?x6817 S_3) (- 5.0))) (or $x894 $x1534 (<= (+ S_2 ?x519) (- 5.0))) (or $x2956 (<= (+ (* 3.0 S_2) ?x309 (* (- 2.0) S_4)) 0.0)) (or $x64 (<= (+ ?x6639 ?x6817 S_1 S_3) (- 10.0))) (or $x64 (<= (+ ?x207 ?x6639 ?x6817 A_3 S_1) (- 5.0))) (or $x74 (<= (+ ?x5537 ?x6039 ?x6031 ?x1564 S_3 ?x1096) 0.0)) (or $x54 $x3685 $x3953) $x45497 $x18530 $x48365 (or $x74 (<= (+ ?x8260 ?x5295 ?x6768 ?x1811 ?x268 S_4) 0.0)) (or $x54 $x11612) $x43640 (or $x74 (<= (+ ?x8260 ?x5295 ?x6768 ?x1811 S_3 ?x309) 0.0)) (or $x74 (<= (+ ?x5537 ?x6039 ?x6031 ?x1564 S_4 ?x309) 0.0)) (or $x3685 (<= (+ S_2 ?x519) (- 5.0))) $x41180 (or $x894 $x1534 $x3953 $x11465) (or $x1287 $x1534 $x5234 $x11465 (<= (+ ?x9282 ?x2245 (* (- (/ 1.0 2.0)) S_4)) (- 5.0))) $x46508 (or $x887 (<= (+ ?x7172 ?x12016 ?x12868 ?x12412 S_0) (- 5.0))) (or $x54 $x3685 $x5234) (or $x54 $x2956 (<= (+ ?x4002 ?x12016 ?x12417 S_2 ?x12412 ?x519) 0.0)) (or $x54 (<= (+ ?x4002 ?x12016 ?x12417 ?x268 ?x12412 S_0) 0.0)) (or $x3297 $x10322 $x25216) $x43065 (or $x980 $x10433 $x10932) (or $x980 $x4631 $x10433) (or $x64 (<= (+ ?x6639 ?x624 ?x6817 A_1 S_3) (- 10.0)) $x9192) $x41636 $x65784 $x42958 $x42923 $x41797 (or $x54 $x2016 (<= (+ ?x12868 ?x12807 S_0 ?x519) 0.0)) (or $x64 (<= (+ ?x6639 ?x624 ?x239 A_1 ?x267 S_4) (- 5.0)) $x7430) (or $x64 (<= (+ L_2 ?x239 ?x207 A_3 S_2 ?x519) 0.0)) (or $x980 $x10433 $x13091) (or $x980 $x10318 $x13091) (or $x980 $x8389 $x10433) (or $x980 $x10318 $x11884) (or $x980 $x10433 $x11884) (or $x980 (<= (+ ?x4927 ?x1096 A_1 ?x6642 ?x6263 ?x6613) (- 5.0)) $x11884) (or $x64 $x9131 (<= (+ ?x7280 ?x1773 ?x6903 ?x2132 S_0) (- 5.0))) (or $x64 $x1196 $x3344 (<= (+ ?x239 A_3 S_0 ?x268) 0.0)) (or $x887 $x10453) (or $x887 (<= (+ ?x7172 ?x12871 ?x12868 ?x12807 S_0 ?x519) 0.0)) $x44530 (or $x980 (<= (+ (* (- (/ 1.0 2.0)) L_1) ?x12595 ?x2245 ?x3179) (- 5.0))) (or $x980 $x4631 (<= (+ ?x4927 ?x1096 A_1 ?x6642 ?x6263 ?x6613) (- 5.0))) (or $x980 (<= (+ ?x4927 ?x1096 A_1 ?x6642 ?x6263 ?x6613) (- 5.0)) $x10932) (or $x980 $x8709 $x10318) (or $x980 $x10318 $x10932) (or $x980 (<= (+ ?x4927 ?x1096 A_1 ?x6642 ?x6263 ?x6613) (- 5.0)) $x13091) $x66865 (or $x980 $x4631 $x25171) (or $x980 $x13091 $x25171) (or $x980 $x4631 $x12553) (or $x980 $x10932 $x25171) (or $x980 $x9755 $x13056) (or $x980 $x11884 $x12553) (or $x980 $x12553 $x13091) $x66879 (or $x64 (<= (+ L_2 ?x239 ?x207 A_3 S_0 ?x268) 0.0) $x3344) $x42152 (or $x1758 $x3317 (<= (+ L_3 ?x267 S_2) (- 10.0))) $x42239 $x66333 $x44529 (or $x74 $x1189 (<= (+ ?x4799 ?x9282 ?x2245 ?x12523 S_4) (- (/ 15.0 2.0))) $x12004 $x29640) (or $x74 $x1189 (<= (+ ?x433 ?x6642 ?x6263 ?x5295 ?x1544) (- 10.0)) $x31602) (or $x74 $x1189 $x12004 $x32426) (or $x1758 $x3317 (<= (+ ?x6642 ?x6263 S_2 S_4) (- 10.0))) $x42371 $x42400 (or $x1758 $x3317 $x19563) $x42416 $x2113 $x37 $x3333))))))))))))))))))))))))))))))))))))))))))))))))))))))))))))))))))))))))))))))))))))))))))))))))))))))))))))))))))))))))))))))))))))))))))))))))))))))))))))))))))))))))))))))))))))))))))))))))
(check-sat)
